webassembly/ejemplos_dzn/folder9_json_10.dzn
TERM = { '.', 'in_1', 'local_0', 'local_1', 'in_6', 'in_2', 'in_4', 'in_3', 's(1)', 's(0)', 'in_5', 'in_0'};
null = '.';
s = 9;
n = 12;
ndeps = 3;
max_registers_sz = 5;
NR = 2;
registers = [|'local_0', 'in_2', |'local_1', 'in_0'|];
dependencies = [|'i32.load8_u_2', 'i32.store8_4', |'i32.store8_4', 'i32.store16_6', |'i32.store16_6', 'call[function_index(0)]_7'|];
GET_ENUM = { GET1, GET2, GET3, GET4, GET5, GET6, GET7};
SET_ENUM = { SET1, SET2, SET3, SET4, SET5, SET6, SET7};
TEE_ENUM = { TEE1, TEE2, TEE3, TEE4, TEE5, TEE6, TEE7};
N = 4;
OP = { 'call[function_index(0)]_7', 'i32.load8_u_2', 'i32.store8_4', 'i32.store16_6' };
in_ops = [3, 1, 2, 2 ];
out_ops = [1, 1, 0, 0 ];
in1 = ['in_4', 'in_0', 's(0)', 'in_2' ];
in2 = ['in_5', '.', 'in_1', 'in_3' ];
in3 = ['in_6', '.', '.', '.' ];
out1 = ['s(1)', 's(0)', '.', '.' ];
out2 = ['.', '.', '.', '.' ];
out3 = ['.', '.', '.', '.' ];
comm = [false, false, false, false ];
gas = [1, 1, 1, 1 ];
sz = [1, 1, 1, 1 ];
stor = [true, false, true, true ];
lb = [ 1, 1, 1, 1 ];
ub = [ 9, 9, 9, 9 ];
startstack = [ 'in_0', 'in_1', 'in_2', 'in_3', 'in_4', 'in_5', 'in_6', null, null, null, null, null ];
endstack = [ 'in_0', 's(1)', null, null, null, null, null, null, null, null, null, null ];
