webassembly/ejemplos_results/9/folder9_json_10.txt
value = 9;
fgas = [1, 1, 2, 1, 1, 1, 1, 1, 1];
fsize = [1, 1, 1, 1, 1, 1, 1, 1, 1];
states = 
[|   in_0,   in_1, in_2,   in_3,   in_4, in_5,   in_6,  '.',    '.',     '.',     '.',     '.'
 |   in_0,   in_1, in_2,   in_3,   in_4, in_5,   in_6,  '.',    '.',    in_0,  's(1)', local_0
 |   in_1,   in_2, in_3,   in_4,   in_5, in_6,    '.',  '.',   in_0,  's(1)', local_0,     '.'
 |   in_2,   in_3, in_4,   in_5,   in_6,  '.',    '.', in_0, 's(1)', local_0,     '.',     '.'
 |   in_2,   in_3, in_4,   in_5,   in_6,  '.',    '.', in_0, 's(1)',     '.',     '.',     '.'
 |   in_4,   in_5, in_6,    '.',    '.', in_0, 's(1)',  '.',    '.',     '.',     '.',     '.'
 | 's(1)',   in_0,  '.',   in_0, 's(1)',  '.',    '.',  '.',    '.',     '.',     '.',     '.'
 |   in_0,    '.', in_0, 's(1)',    '.',  '.',    '.',  '.',    '.',     '.',     '.',     '.'
 | 's(0)',   in_1, in_0, 's(1)',    '.',  '.',    '.',  '.',    '.',     '.',     '.',     '.'
 |   in_0, 's(1)',  '.',    '.',    '.',  '.',    '.',  '.',    '.',     '.',     '.',     '.'
 |];
register_states = 
[| local_0, local_1, '.', '.', '.', '.', '.'
 |    in_0, local_1, '.', '.', '.', '.', '.'
 |    in_0,    in_0, '.', '.', '.', '.', '.'
 |    in_0,    in_0, '.', '.', '.', '.', '.'
 |    in_2,    in_0, '.', '.', '.', '.', '.'
 |    in_2,    in_0, '.', '.', '.', '.', '.'
 |    in_2,    in_0, '.', '.', '.', '.', '.'
 |    in_2,    in_0, '.', '.', '.', '.', '.'
 |    in_2,    in_0, '.', '.', '.', '.', '.'
 |    in_2,    in_0, '.', '.', '.', '.', '.'
 |];
program = [TEE(TEE1), S(SET2), POP, TEE(TEE1), O('i32.store16_6'), O('call[function_index(0)]_7'), G(GET2), O('i32.load8_u_2'), O('i32.store8_4')];
% time elapsed: 0.13 s
----------
value = 8;
fgas = [1, 1, 1, 1, 1, 1, 1, 1, 0];
fsize = [1, 1, 1, 1, 1, 1, 1, 1, 1];
states = 
[|   in_0,   in_1,   in_2,   in_3,   in_4, in_5,   in_6,  '.',    '.',  '.',    '.', '.'
 |   in_0,   in_1,   in_2,   in_3,   in_4, in_5,   in_6,  '.',    '.', in_0, 's(1)', '.'
 | 's(0)',   in_1,   in_2,   in_3,   in_4, in_5,   in_6,  '.',    '.', in_0, 's(1)', '.'
 |   in_2,   in_3,   in_4,   in_5,   in_6,  '.',    '.', in_0, 's(1)',  '.',    '.', '.'
 |   in_4,   in_5,   in_6,    '.',    '.', in_0, 's(1)',  '.',    '.',  '.',    '.', '.'
 | 's(1)',   in_2,    '.',   in_0, 's(1)',  '.',    '.',  '.',    '.',  '.',    '.', '.'
 |   in_2,    '.',   in_0, 's(1)',    '.',  '.',    '.',  '.',    '.',  '.',    '.', '.'
 |    '.',   in_0, 's(1)',    '.',    '.',  '.',    '.',  '.',    '.',  '.',    '.', '.'
 |   in_0, 's(1)',    '.',    '.',    '.',  '.',    '.',  '.',    '.',  '.',    '.', '.'
 |   in_0, 's(1)',    '.',    '.',    '.',  '.',    '.',  '.',    '.',  '.',    '.', '.'
 |];
register_states = 
[| local_0, local_1, '.', '.', '.', '.', '.'
 | local_0,    in_0, '.', '.', '.', '.', '.'
 | local_0,    in_0, '.', '.', '.', '.', '.'
 | local_0,    in_0, '.', '.', '.', '.', '.'
 | local_0,    in_0, '.', '.', '.', '.', '.'
 | local_0,    in_0, '.', '.', '.', '.', '.'
 |  's(1)',    in_0, '.', '.', '.', '.', '.'
 |    in_2,    in_0, '.', '.', '.', '.', '.'
 |    in_2,    in_0, '.', '.', '.', '.', '.'
 |    in_2,    in_0, '.', '.', '.', '.', '.'
 |];
program = [TEE(TEE2), O('i32.load8_u_2'), O('i32.store8_4'), O('i32.store16_6'), O('call[function_index(0)]_7'), S(SET1), S(SET1), G(GET2), NOP];
% time elapsed: 0.16 s
----------
==========
% time elapsed: 0.16 s
% [value > 7]
